certificates/rado_a11_c215_N38.cnf
c Rad2 upper bound instance: x1 + 11*x2 - x3 = 215, interval [1,38]
p cnf 38 256
1 6 20 0
-1 -6 -20 0
1 17 21 0
-1 -17 -21 0
1 22 28 0
-1 -22 -28 0
2 7 20 0
-2 -7 -20 0
2 18 21 0
-2 -18 -21 0
2 22 29 0
-2 -22 -29 0
3 8 20 0
-3 -8 -20 0
3 19 21 0
-3 -19 -21 0
3 22 30 0
-3 -22 -30 0
4 9 20 0
-4 -9 -20 0
4 20 21 0
-4 -20 -21 0
4 22 31 0
-4 -22 -31 0
5 10 20 0
-5 -10 -20 0
5 21 0
-5 -21 0
5 22 32 0
-5 -22 -32 0
6 11 20 0
-6 -11 -20 0
6 21 22 0
-6 -21 -22 0
6 22 33 0
-6 -22 -33 0
1 7 19 0
-1 -7 -19 0
7 12 20 0
-7 -12 -20 0
7 21 23 0
-7 -21 -23 0
7 22 34 0
-7 -22 -34 0
2 8 19 0
-2 -8 -19 0
8 13 20 0
-8 -13 -20 0
8 21 24 0
-8 -21 -24 0
8 22 35 0
-8 -22 -35 0
3 9 19 0
-3 -9 -19 0
9 14 20 0
-9 -14 -20 0
9 21 25 0
-9 -21 -25 0
9 22 36 0
-9 -22 -36 0
4 10 19 0
-4 -10 -19 0
10 15 20 0
-10 -15 -20 0
10 21 26 0
-10 -21 -26 0
10 22 37 0
-10 -22 -37 0
5 11 19 0
-5 -11 -19 0
11 16 20 0
-11 -16 -20 0
11 21 27 0
-11 -21 -27 0
11 22 38 0
-11 -22 -38 0
6 12 19 0
-6 -12 -19 0
12 17 20 0
-12 -17 -20 0
12 21 28 0
-12 -21 -28 0
7 13 19 0
-7 -13 -19 0
13 18 20 0
-13 -18 -20 0
13 21 29 0
-13 -21 -29 0
8 14 19 0
-8 -14 -19 0
14 19 20 0
-14 -19 -20 0
14 21 30 0
-14 -21 -30 0
9 15 19 0
-9 -15 -19 0
15 20 0
-15 -20 0
15 21 31 0
-15 -21 -31 0
10 16 19 0
-10 -16 -19 0
16 20 21 0
-16 -20 -21 0
16 21 32 0
-16 -21 -32 0
11 17 19 0
-11 -17 -19 0
17 20 22 0
-17 -20 -22 0
17 21 33 0
-17 -21 -33 0
1 18 0
-1 -18 0
12 18 19 0
-12 -18 -19 0
18 20 23 0
-18 -20 -23 0
18 21 34 0
-18 -21 -34 0
2 18 19 0
-2 -18 -19 0
13 19 0
-13 -19 0
19 20 24 0
-19 -20 -24 0
19 21 35 0
-19 -21 -35 0
3 18 20 0
-3 -18 -20 0
20 25 0
-20 -25 0
20 21 36 0
-20 -21 -36 0
4 18 21 0
-4 -18 -21 0
15 19 21 0
-15 -19 -21 0
20 21 26 0
-20 -21 -26 0
21 37 0
-21 -37 0
5 18 22 0
-5 -18 -22 0
16 19 22 0
-16 -19 -22 0
20 22 27 0
-20 -22 -27 0
21 22 38 0
-21 -22 -38 0
6 18 23 0
-6 -18 -23 0
17 19 23 0
-17 -19 -23 0
20 23 28 0
-20 -23 -28 0
7 18 24 0
-7 -18 -24 0
18 19 24 0
-18 -19 -24 0
20 24 29 0
-20 -24 -29 0
8 18 25 0
-8 -18 -25 0
19 25 0
-19 -25 0
20 25 30 0
-20 -25 -30 0
9 18 26 0
-9 -18 -26 0
19 20 26 0
-19 -20 -26 0
20 26 31 0
-20 -26 -31 0
10 18 27 0
-10 -18 -27 0
19 21 27 0
-19 -21 -27 0
20 27 32 0
-20 -27 -32 0
11 18 28 0
-11 -18 -28 0
19 22 28 0
-19 -22 -28 0
20 28 33 0
-20 -28 -33 0
1 17 29 0
-1 -17 -29 0
12 18 29 0
-12 -18 -29 0
19 23 29 0
-19 -23 -29 0
20 29 34 0
-20 -29 -34 0
2 17 30 0
-2 -17 -30 0
13 18 30 0
-13 -18 -30 0
19 24 30 0
-19 -24 -30 0
20 30 35 0
-20 -30 -35 0
3 17 31 0
-3 -17 -31 0
14 18 31 0
-14 -18 -31 0
19 25 31 0
-19 -25 -31 0
20 31 36 0
-20 -31 -36 0
4 17 32 0
-4 -17 -32 0
15 18 32 0
-15 -18 -32 0
19 26 32 0
-19 -26 -32 0
20 32 37 0
-20 -32 -37 0
5 17 33 0
-5 -17 -33 0
16 18 33 0
-16 -18 -33 0
19 27 33 0
-19 -27 -33 0
20 33 38 0
-20 -33 -38 0
6 17 34 0
-6 -17 -34 0
17 18 34 0
-17 -18 -34 0
19 28 34 0
-19 -28 -34 0
7 17 35 0
-7 -17 -35 0
18 35 0
-18 -35 0
19 29 35 0
-19 -29 -35 0
8 17 36 0
-8 -17 -36 0
18 19 36 0
-18 -19 -36 0
19 30 36 0
-19 -30 -36 0
9 17 37 0
-9 -17 -37 0
18 20 37 0
-18 -20 -37 0
19 31 37 0
-19 -31 -37 0
10 17 38 0
-10 -17 -38 0
18 21 38 0
-18 -21 -38 0
19 32 38 0
-19 -32 -38 0
