certificates/rado_a11_c215_N38.drat
-33 21 -38 0
18 33 21 0
-37 -38 0
-38 0
33 -21 0
37 0
-21 0
5 0
18 0
22 0
-1 0
-35 0
-20 0
0
